networks/zoo_48_331/zoo_48_331-lower.txt
Number of groups: 21
Flow 1: {1 20 0} {20 16 0} {16 4 0} {4 28 0} 
Flow 2: {1 2 0} {2 19 0} {19 5 0} {5 29 0} 
Flow 3: {20 17 0} {17 7 0} {7 31 0} 
Flow 4: {19 8 0} {8 32 0} 
Flow 5: {19 6 0} {6 10 0} {10 34 0} 
Flow 6: {20 3 0} {3 13 0} {13 37 0} 
Flow 7: {22 21 0} {21 14 0} {14 38 0} 
Flow 7: {20 22 0} Flow 8: {17 41 0} 
Flow 9: {20 18 0} {18 42 0} 
Flow 10: {19 43 0} 
Flow 11: {20 44 0} 
Flow 12: {21 45 0} 
Flow 13: {22 46 0} 
Flow 14: {20 24 0} {24 23 0} {23 47 0} 
Flow 15: {2 1 0} {1 25 0} 
Flow 18: {19 18 0} {18 7 0} Flow 30: {3 20 0} {20 1 0} Flow 31: {2 26 0} 
Flow 33: {24 5 0} Flow 34: {18 9 0} {9 6 0} {6 30 0} 
Flow 36: {18 19 0} Flow 37: {9 33 0} 
Flow 38: {9 10 0} Flow 39: {22 11 0} {11 35 0} 
Flow 40: {13 12 0} {12 36 0} 
Flow 50: {24 48 0} 
Flow 51: {4 24 0} {24 20 0} Flow 53: {5 8 0} Flow 54: {5 19 0} Flow 59: {4 23 0} {23 21 0} Flow 61: {19 2 0} Flow 63: {5 24 0} {24 4 0} Flow 67: {6 9 0} Flow 70: {21 12 0} Flow 80: {6 19 0} Flow 84: {9 18 0} Flow 88: {18 20 0} Flow 92: {7 17 0} Flow 100: {17 20 0} Flow 101: {7 18 0} Flow 116: {8 19 0} Flow 117: {8 5 0} Flow 143: {11 22 0} {22 20 0} Flow 150: {12 21 0} {21 23 0} {23 4 0} Flow 151: {13 3 0} Flow 167: {14 21 0} Flow 168: {15 21 0} {21 22 0} Flow 170: {15 23 0} Flow 171: {23 24 0} Flow 179: {12 13 0} Flow 188: {16 20 0} Time taken running everything: 0 seconds
