networks/zoo_48_331/zoo_48_331-lower.sol
<?xml version = "1.0" encoding="UTF-8" standalone="yes"?>
<CPLEXSolution version="1.2">
 <header
   problemName="networks/zoo_48_331/zoo_48_331-lower.lp"
   solutionName="incumbent"
   solutionIndex="-1"
   objectiveValue="21"
   solutionTypeValue="3"
   solutionTypeString="primal"
   solutionStatusValue="101"
   solutionStatusString="integer optimal solution"
   solutionMethodString="mip"
   primalFeasible="1"
   dualFeasible="1"
   MIPNodes="0"
   MIPIterations="0"
   writeLevel="3"/>
 <quality
   epInt="1.0000000000000001e-05"
   epRHS="9.9999999999999995e-07"
   maxIntInfeas="0"
   maxPrimalInfeas="0"
   maxX="1"
   maxSlack="1"/>
 <variables>
  <variable name="Y(1,4)" index="3" value="1"/>
  <variable name="Y(2,5)" index="49" value="1"/>
  <variable name="Y(3,7)" index="96" value="1"/>
  <variable name="Y(4,8)" index="142" value="1"/>
  <variable name="Y(5,10)" index="189" value="1"/>
  <variable name="Y(6,13)" index="237" value="1"/>
  <variable name="Y(7,14)" index="283" value="1"/>
  <variable name="Y(8,17)" index="331" value="1"/>
  <variable name="Y(9,18)" index="377" value="1"/>
  <variable name="Y(10,19)" index="423" value="1"/>
  <variable name="Y(11,20)" index="469" value="1"/>
  <variable name="Y(12,21)" index="515" value="1"/>
  <variable name="Y(13,22)" index="561" value="1"/>
  <variable name="Y(14,23)" index="607" value="1"/>
  <variable name="Y(15,1)" index="630" value="1"/>
  <variable name="Y(31,2)" index="1351" value="1"/>
  <variable name="Y(34,6)" index="1490" value="1"/>
  <variable name="Y(37,9)" index="1628" value="1"/>
  <variable name="Y(39,11)" index="1720" value="1"/>
  <variable name="Y(40,12)" index="1766" value="1"/>
  <variable name="Y(50,24)" index="2228" value="1"/>
  <variable name="X(1,2,2)" index="14896" value="1"/>
  <variable name="X(1,20,1)" index="15226" value="1"/>
  <variable name="X(1,25,15)" index="15571" value="1"/>
  <variable name="X(2,1,15)" index="15902" value="1"/>
  <variable name="X(2,19,2)" index="16220" value="1"/>
  <variable name="X(2,26,31)" index="16580" value="1"/>
  <variable name="X(3,13,6)" index="16886" value="1"/>
  <variable name="X(3,20,30)" index="17241" value="1"/>
  <variable name="X(4,23,59)" index="17601" value="1"/>
  <variable name="X(4,24,51)" index="17924" value="1"/>
  <variable name="X(4,28,1)" index="18205" value="1"/>
  <variable name="X(5,8,53)" index="18588" value="1"/>
  <variable name="X(5,19,54)" index="18920" value="1"/>
  <variable name="X(5,24,63)" index="19260" value="1"/>
  <variable name="X(5,29,2)" index="19530" value="1"/>
  <variable name="X(6,9,67)" index="19926" value="1"/>
  <variable name="X(6,10,5)" index="20195" value="1"/>
  <variable name="X(6,19,80)" index="20601" value="1"/>
  <variable name="X(6,30,34)" index="20886" value="1"/>
  <variable name="X(7,17,92)" index="21275" value="1"/>
  <variable name="X(7,18,101)" index="21615" value="1"/>
  <variable name="X(7,31,3)" index="21848" value="1"/>
  <variable name="X(8,5,117)" index="22293" value="1"/>
  <variable name="X(8,19,116)" index="22623" value="1"/>
  <variable name="X(8,32,4)" index="22842" value="1"/>
  <variable name="X(9,6,34)" index="23203" value="1"/>
  <variable name="X(9,10,38)" index="23538" value="1"/>
  <variable name="X(9,18,84)" index="23915" value="1"/>
  <variable name="X(9,33,37)" index="24199" value="1"/>
  <variable name="X(10,34,5)" index="24498" value="1"/>
  <variable name="X(11,22,143)" index="24967" value="1"/>
  <variable name="X(11,35,39)" index="25194" value="1"/>
  <variable name="X(12,13,179)" index="25665" value="1"/>
  <variable name="X(12,21,150)" index="25967" value="1"/>
  <variable name="X(12,36,40)" index="26188" value="1"/>
  <variable name="X(13,3,151)" index="26630" value="1"/>
  <variable name="X(13,12,40)" index="26850" value="1"/>
  <variable name="X(13,37,6)" index="27147" value="1"/>
  <variable name="X(14,21,167)" index="27639" value="1"/>
  <variable name="X(14,38,7)" index="27810" value="1"/>
  <variable name="X(15,21,168)" index="28302" value="1"/>
  <variable name="X(15,23,170)" index="28635" value="1"/>
  <variable name="X(16,4,1)" index="28797" value="1"/>
  <variable name="X(16,20,188)" index="29315" value="1"/>
  <variable name="X(17,7,3)" index="29461" value="1"/>
  <variable name="X(17,20,100)" index="29889" value="1"/>
  <variable name="X(17,41,8)" index="30128" value="1"/>
  <variable name="X(18,7,18)" index="30469" value="1"/>
  <variable name="X(18,9,34)" index="30816" value="1"/>
  <variable name="X(18,19,36)" index="31149" value="1"/>
  <variable name="X(18,20,88)" index="31532" value="1"/>
  <variable name="X(18,42,9)" index="31784" value="1"/>
  <variable name="X(19,2,61)" index="32167" value="1"/>
  <variable name="X(19,5,2)" index="32439" value="1"/>
  <variable name="X(19,6,5)" index="32773" value="1"/>
  <variable name="X(19,8,4)" index="33103" value="1"/>
  <variable name="X(19,18,18)" index="33448" value="1"/>
  <variable name="X(19,43,10)" index="33771" value="1"/>
  <variable name="X(20,1,30)" index="34122" value="1"/>
  <variable name="X(20,3,6)" index="34429" value="1"/>
  <variable name="X(20,16,1)" index="34755" value="1"/>
  <variable name="X(20,17,3)" index="35088" value="1"/>
  <variable name="X(20,18,9)" index="35425" value="1"/>
  <variable name="X(20,22,7)" index="35754" value="1"/>
  <variable name="X(20,24,14)" index="36092" value="1"/>
  <variable name="X(20,44,11)" index="36420" value="1"/>
  <variable name="X(21,12,70)" index="36810" value="1"/>
  <variable name="X(21,14,7)" index="37078" value="1"/>
  <variable name="X(21,22,168)" index="37570" value="1"/>
  <variable name="X(21,23,150)" index="37883" value="1"/>
  <variable name="X(21,45,12)" index="38076" value="1"/>
  <variable name="X(22,11,39)" index="38434" value="1"/>
  <variable name="X(22,20,143)" index="38869" value="1"/>
  <variable name="X(22,21,7)" index="39064" value="1"/>
  <variable name="X(22,46,13)" index="39401" value="1"/>
  <variable name="X(23,4,150)" index="39869" value="1"/>
  <variable name="X(23,21,59)" index="40109" value="1"/>
  <variable name="X(23,24,171)" index="40552" value="1"/>
  <variable name="X(23,47,14)" index="40726" value="1"/>
  <variable name="X(24,4,63)" index="41106" value="1"/>
  <variable name="X(24,5,33)" index="41407" value="1"/>
  <variable name="X(24,20,51)" index="41756" value="1"/>
  <variable name="X(24,23,14)" index="42050" value="1"/>
  <variable name="X(24,48,50)" index="42417" value="1"/>
 </variables>
</CPLEXSolution>
